c nombre: 25
c densidad: 0.5
p edges 50 604
e 1 2
e 1 3
e 1 4
e 1 6
e 1 7
e 1 8
e 1 10
e 1 14
e 1 17
e 1 20
e 1 21
e 1 22
e 1 23
e 1 24
e 1 25
e 1 27
e 1 29
e 1 30
e 1 31
e 1 36
e 1 37
e 1 41
e 1 42
e 1 45
e 1 46
e 2 7
e 2 8
e 2 11
e 2 12
e 2 13
e 2 14
e 2 17
e 2 19
e 2 20
e 2 26
e 2 31
e 2 32
e 2 33
e 2 34
e 2 35
e 2 36
e 2 37
e 2 39
e 2 41
e 2 42
e 2 43
e 2 44
e 2 46
e 2 47
e 2 50
e 3 4
e 3 7
e 3 13
e 3 14
e 3 15
e 3 17
e 3 18
e 3 19
e 3 26
e 3 28
e 3 29
e 3 31
e 3 32
e 3 35
e 3 38
e 3 39
e 3 40
e 3 41
e 3 42
e 3 44
e 3 45
e 3 47
e 3 49
e 3 50
e 4 5
e 4 8
e 4 12
e 4 16
e 4 19
e 4 20
e 4 21
e 4 25
e 4 28
e 4 30
e 4 31
e 4 33
e 4 34
e 4 35
e 4 37
e 4 41
e 4 43
e 4 44
e 4 45
e 4 46
e 4 48
e 5 6
e 5 7
e 5 12
e 5 13
e 5 14
e 5 15
e 5 17
e 5 18
e 5 21
e 5 22
e 5 23
e 5 25
e 5 27
e 5 29
e 5 31
e 5 32
e 5 33
e 5 34
e 5 35
e 5 36
e 5 38
e 5 40
e 5 44
e 5 46
e 5 48
e 5 49
e 5 50
e 6 16
e 6 17
e 6 18
e 6 19
e 6 22
e 6 24
e 6 28
e 6 29
e 6 30
e 6 31
e 6 32
e 6 33
e 6 34
e 6 38
e 6 39
e 6 40
e 6 41
e 6 43
e 6 44
e 6 45
e 6 46
e 6 47
e 6 49
e 7 10
e 7 11
e 7 14
e 7 16
e 7 21
e 7 25
e 7 26
e 7 33
e 7 34
e 7 35
e 7 37
e 7 38
e 7 40
e 7 41
e 7 43
e 7 44
e 7 45
e 7 47
e 7 49
e 8 12
e 8 13
e 8 14
e 8 15
e 8 16
e 8 27
e 8 30
e 8 31
e 8 32
e 8 34
e 8 37
e 8 38
e 8 44
e 8 46
e 8 48
e 8 50
e 9 12
e 9 13
e 9 14
e 9 15
e 9 16
e 9 19
e 9 20
e 9 21
e 9 22
e 9 28
e 9 29
e 9 30
e 9 33
e 9 34
e 9 35
e 9 36
e 9 39
e 9 40
e 9 41
e 9 43
e 9 45
e 10 17
e 10 21
e 10 22
e 10 24
e 10 25
e 10 26
e 10 28
e 10 31
e 10 33
e 10 37
e 10 38
e 10 39
e 10 42
e 10 47
e 10 49
e 11 12
e 11 13
e 11 14
e 11 19
e 11 22
e 11 25
e 11 26
e 11 27
e 11 30
e 11 31
e 11 33
e 11 34
e 11 38
e 11 44
e 11 50
e 12 13
e 12 14
e 12 15
e 12 16
e 12 19
e 12 20
e 12 22
e 12 23
e 12 27
e 12 28
e 12 29
e 12 30
e 12 32
e 12 34
e 12 37
e 12 40
e 12 41
e 12 42
e 12 49
e 12 50
e 13 15
e 13 16
e 13 18
e 13 19
e 13 20
e 13 21
e 13 22
e 13 25
e 13 26
e 13 29
e 13 30
e 13 33
e 13 34
e 13 35
e 13 36
e 13 38
e 13 39
e 13 43
e 13 44
e 13 45
e 13 46
e 13 47
e 13 48
e 13 49
e 14 17
e 14 18
e 14 20
e 14 21
e 14 22
e 14 24
e 14 27
e 14 29
e 14 31
e 14 34
e 14 37
e 14 40
e 14 42
e 14 44
e 14 46
e 14 47
e 15 16
e 15 17
e 15 18
e 15 23
e 15 24
e 15 26
e 15 30
e 15 31
e 15 32
e 15 33
e 15 35
e 15 38
e 15 39
e 15 43
e 15 48
e 16 17
e 16 19
e 16 21
e 16 22
e 16 26
e 16 34
e 16 35
e 16 36
e 16 37
e 16 38
e 16 39
e 16 40
e 16 43
e 16 45
e 16 46
e 16 48
e 16 50
e 17 20
e 17 22
e 17 25
e 17 28
e 17 29
e 17 32
e 17 35
e 17 39
e 17 42
e 17 43
e 17 46
e 17 48
e 17 49
e 17 50
e 18 19
e 18 21
e 18 29
e 18 30
e 18 33
e 18 34
e 18 35
e 18 36
e 18 41
e 18 44
e 18 45
e 18 46
e 18 47
e 18 49
e 18 50
e 19 22
e 19 24
e 19 26
e 19 28
e 19 29
e 19 30
e 19 31
e 19 32
e 19 33
e 19 35
e 19 36
e 19 38
e 19 39
e 19 40
e 19 41
e 19 42
e 19 44
e 19 45
e 19 46
e 19 47
e 19 48
e 19 49
e 19 50
e 20 22
e 20 24
e 20 25
e 20 26
e 20 28
e 20 30
e 20 33
e 20 35
e 20 36
e 20 37
e 20 39
e 20 41
e 20 42
e 20 44
e 20 46
e 20 47
e 20 49
e 20 50
e 21 23
e 21 24
e 21 25
e 21 29
e 21 30
e 21 31
e 21 32
e 21 34
e 21 35
e 21 37
e 21 39
e 21 40
e 21 41
e 21 45
e 21 47
e 22 23
e 22 24
e 22 26
e 22 28
e 22 30
e 22 32
e 22 33
e 22 34
e 22 36
e 22 37
e 22 38
e 22 44
e 22 49
e 22 50
e 23 26
e 23 28
e 23 32
e 23 37
e 23 38
e 23 39
e 23 40
e 23 41
e 23 43
e 23 46
e 23 50
e 24 26
e 24 28
e 24 29
e 24 30
e 24 31
e 24 36
e 24 37
e 24 38
e 24 40
e 24 41
e 24 42
e 24 43
e 24 46
e 24 47
e 24 49
e 25 29
e 25 30
e 25 31
e 25 34
e 25 35
e 25 36
e 25 37
e 25 40
e 25 41
e 25 43
e 25 46
e 25 48
e 26 31
e 26 34
e 26 35
e 26 36
e 26 37
e 26 38
e 26 40
e 26 44
e 26 47
e 26 48
e 27 29
e 27 30
e 27 35
e 27 37
e 27 38
e 27 40
e 27 43
e 27 45
e 27 49
e 28 29
e 28 30
e 28 31
e 28 35
e 28 39
e 28 41
e 28 42
e 28 43
e 29 31
e 29 35
e 29 36
e 29 38
e 29 40
e 29 42
e 29 43
e 29 44
e 29 47
e 29 48
e 30 37
e 30 38
e 30 40
e 30 45
e 30 46
e 30 47
e 31 32
e 31 33
e 31 34
e 31 35
e 31 40
e 31 42
e 31 43
e 31 45
e 31 47
e 31 48
e 31 49
e 32 34
e 32 36
e 32 37
e 32 38
e 32 39
e 32 42
e 32 45
e 33 35
e 33 36
e 33 37
e 33 39
e 33 41
e 33 43
e 33 44
e 33 48
e 33 49
e 34 37
e 34 40
e 34 41
e 34 42
e 34 44
e 34 46
e 34 50
e 35 37
e 35 38
e 35 40
e 35 41
e 35 43
e 35 46
e 35 47
e 35 48
e 35 50
e 36 39
e 36 40
e 36 41
e 36 44
e 36 45
e 36 47
e 36 48
e 36 49
e 37 38
e 37 39
e 37 41
e 37 42
e 37 46
e 37 48
e 37 49
e 37 50
e 38 40
e 38 41
e 38 43
e 38 45
e 38 46
e 38 49
e 38 50
e 39 42
e 39 43
e 39 45
e 39 46
e 39 47
e 39 48
e 40 42
e 40 43
e 40 44
e 40 45
e 40 46
e 40 47
e 40 49
e 41 45
e 41 47
e 41 48
e 41 50
e 42 44
e 42 46
e 42 48
e 42 49
e 42 50
e 43 45
e 43 46
e 43 47
e 43 48
e 43 49
e 43 50
e 44 45
e 44 48
e 45 47
e 46 50
e 47 49
e 48 50
e 49 50
